problems/csplib-prob030/BalancedAcademicCurriculumProblem-models/compact/O0/minion/model-bacp-6-solution000001.eprime-solution
language ESSENCE' 1.0

letting curr_Function1D be
        [1, 1, 4, 1, 4, 3, 3, 10, 3, 9, 2, 1, 1, 2, 2, 1, 6, 1, 8, 7, 9, 8, 6, 5, 5, 7, 5, 5, 5, 5, 4, 4, 3, 4, 3, 3,
         10, 3, 3, 2, 3, 1, 1, 2, 2, 2, 2, 1, 2, 2;
             int(1..50)]
