problems/csplib-prob030/BalancedAcademicCurriculumProblem-models/noch/O0/minion/model-bacp-6-solution000001.solution
language Essence 1.3

letting curr be
        function(1 --> 1, 2 --> 1, 3 --> 4, 4 --> 1, 5 --> 4, 6 --> 3, 7 --> 3, 8 --> 10, 9 --> 3, 10 --> 9, 11 --> 2,
                 12 --> 1, 13 --> 1, 14 --> 2, 15 --> 2, 16 --> 1, 17 --> 6, 18 --> 1, 19 --> 8, 20 --> 7, 21 --> 9,
                 22 --> 8, 23 --> 6, 24 --> 5, 25 --> 5, 26 --> 7, 27 --> 5, 28 --> 5, 29 --> 5, 30 --> 5, 31 --> 4,
                 32 --> 4, 33 --> 3, 34 --> 4, 35 --> 3, 36 --> 3, 37 --> 10, 38 --> 3, 39 --> 3, 40 --> 2, 41 --> 3,
                 42 --> 1, 43 --> 1, 44 --> 2, 45 --> 2, 46 --> 2, 47 --> 2, 48 --> 1, 49 --> 2, 50 --> 2)
